# Objective value = 7.5699999962069660e+02
x[0,0] 0
x[0,1] 0
x[0,2] 0
x[0,3] 0
x[0,4] 0
x[0,5] 0
x[0,6] 0
x[0,7] 0
x[0,8] 0
x[0,9] 0
x[0,10] 0
x[0,11] 0
x[0,12] 0
x[0,13] 0
x[0,14] 0
x[0,15] 1
x[0,16] 0
x[0,17] 0
x[0,18] 0
x[0,19] 0
x[1,0] 0
x[1,1] 0
x[1,2] 0
x[1,3] 0
x[1,4] 0
x[1,5] 0
x[1,6] 0
x[1,7] 0
x[1,8] 0
x[1,9] 0
x[1,10] 0
x[1,11] 0
x[1,12] 0
x[1,13] 1
x[1,14] 0
x[1,15] 0
x[1,16] 0
x[1,17] 0
x[1,18] 0
x[1,19] 0
x[2,0] 0
x[2,1] 0
x[2,2] 0
x[2,3] 0
x[2,4] 0
x[2,5] 0
x[2,6] 0
x[2,7] 0
x[2,8] 0
x[2,9] 0
x[2,10] 0
x[2,11] 1
x[2,12] 0
x[2,13] 0
x[2,14] 0
x[2,15] 0
x[2,16] 0
x[2,17] 0
x[2,18] 0
x[2,19] 0
x[3,0] 0
x[3,1] 0
x[3,2] 0
x[3,3] 0
x[3,4] 0
x[3,5] 0
x[3,6] 0
x[3,7] 0
x[3,8] 0
x[3,9] 0
x[3,10] 0
x[3,11] 0
x[3,12] 0
x[3,13] 0
x[3,14] 0
x[3,15] 0
x[3,16] 1
x[3,17] 0
x[3,18] 0
x[3,19] 0
x[4,0] 0
x[4,1] 0
x[4,2] 1
x[4,3] 0
x[4,4] 0
x[4,5] 0
x[4,6] 0
x[4,7] 0
x[4,8] 0
x[4,9] 0
x[4,10] 0
x[4,11] 0
x[4,12] 0
x[4,13] 0
x[4,14] 0
x[4,15] 0
x[4,16] 0
x[4,17] 0
x[4,18] 0
x[4,19] 0
x[5,0] 0
x[5,1] 0
x[5,2] 0
x[5,3] 0
x[5,4] 0
x[5,5] 0
x[5,6] 0
x[5,7] 0
x[5,8] 1
x[5,9] 0
x[5,10] 0
x[5,11] 0
x[5,12] 0
x[5,13] 0
x[5,14] 0
x[5,15] 0
x[5,16] 0
x[5,17] 0
x[5,18] 0
x[5,19] 0
x[6,0] 0
x[6,1] 0
x[6,2] 0
x[6,3] 0
x[6,4] 0
x[6,5] 0
x[6,6] 0
x[6,7] 0
x[6,8] 0
x[6,9] 0
x[6,10] 0
x[6,11] 0
x[6,12] 0
x[6,13] 0
x[6,14] 0
x[6,15] 0
x[6,16] 0
x[6,17] 0
x[6,18] 0
x[6,19] 1
x[7,0] 1
x[7,1] 0
x[7,2] 0
x[7,3] 0
x[7,4] 0
x[7,5] 0
x[7,6] 0
x[7,7] 0
x[7,8] 0
x[7,9] 0
x[7,10] 0
x[7,11] 0
x[7,12] 0
x[7,13] 0
x[7,14] 0
x[7,15] 0
x[7,16] 0
x[7,17] 0
x[7,18] 0
x[7,19] 0
x[8,0] 0
x[8,1] 0
x[8,2] 0
x[8,3] 0
x[8,4] 0
x[8,5] 0
x[8,6] 0
x[8,7] 0
x[8,8] 0
x[8,9] 0
x[8,10] 1
x[8,11] 0
x[8,12] 0
x[8,13] 0
x[8,14] 0
x[8,15] 0
x[8,16] 0
x[8,17] 0
x[8,18] 0
x[8,19] 0
x[9,0] 0
x[9,1] 0
x[9,2] 0
x[9,3] 0
x[9,4] 0
x[9,5] 0
x[9,6] 0
x[9,7] 0
x[9,8] 0
x[9,9] 0
x[9,10] 0
x[9,11] 0
x[9,12] 0
x[9,13] 0
x[9,14] 0
x[9,15] 0
x[9,16] 0
x[9,17] 1
x[9,18] 0
x[9,19] 0
x[10,0] 0
x[10,1] 0
x[10,2] 0
x[10,3] 0
x[10,4] 0
x[10,5] 0
x[10,6] 0
x[10,7] 0
x[10,8] 0
x[10,9] 0
x[10,10] 0
x[10,11] 0
x[10,12] 0
x[10,13] 0
x[10,14] 1
x[10,15] 0
x[10,16] 0
x[10,17] 0
x[10,18] 0
x[10,19] 0
x[11,0] 0
x[11,1] 0
x[11,2] 0
x[11,3] 0
x[11,4] 0
x[11,5] 0
x[11,6] 0
x[11,7] 0
x[11,8] 0
x[11,9] 0
x[11,10] 0
x[11,11] 0
x[11,12] 1
x[11,13] 0
x[11,14] 0
x[11,15] 0
x[11,16] 0
x[11,17] 0
x[11,18] 0
x[11,19] 0
x[12,0] 0
x[12,1] 1
x[12,2] 0
x[12,3] 0
x[12,4] 0
x[12,5] 0
x[12,6] 0
x[12,7] 0
x[12,8] 0
x[12,9] 0
x[12,10] 0
x[12,11] 0
x[12,12] 0
x[12,13] 0
x[12,14] 0
x[12,15] 0
x[12,16] 0
x[12,17] 0
x[12,18] 0
x[12,19] 0
x[13,0] 0
x[13,1] 0
x[13,2] 0
x[13,3] 0
x[13,4] 0
x[13,5] 1
x[13,6] 0
x[13,7] 0
x[13,8] 0
x[13,9] 0
x[13,10] 0
x[13,11] 0
x[13,12] 0
x[13,13] 0
x[13,14] 0
x[13,15] 0
x[13,16] 0
x[13,17] 0
x[13,18] 0
x[13,19] 0
x[14,0] 0
x[14,1] 0
x[14,2] 0
x[14,3] 0
x[14,4] 0
x[14,5] 0
x[14,6] 0
x[14,7] 0
x[14,8] 0
x[14,9] 1
x[14,10] 0
x[14,11] 0
x[14,12] 0
x[14,13] 0
x[14,14] 0
x[14,15] 0
x[14,16] 0
x[14,17] 0
x[14,18] 0
x[14,19] 0
x[15,0] 0
x[15,1] 0
x[15,2] 0
x[15,3] 0
x[15,4] 0
x[15,5] 0
x[15,6] 1
x[15,7] 0
x[15,8] 0
x[15,9] 0
x[15,10] 0
x[15,11] 0
x[15,12] 0
x[15,13] 0
x[15,14] 0
x[15,15] 0
x[15,16] 0
x[15,17] 0
x[15,18] 0
x[15,19] 0
x[16,0] 0
x[16,1] 0
x[16,2] 0
x[16,3] 0
x[16,4] 0
x[16,5] 0
x[16,6] 0
x[16,7] 1
x[16,8] 0
x[16,9] 0
x[16,10] 0
x[16,11] 0
x[16,12] 0
x[16,13] 0
x[16,14] 0
x[16,15] 0
x[16,16] 0
x[16,17] 0
x[16,18] 0
x[16,19] 0
x[17,0] 0
x[17,1] 0
x[17,2] 0
x[17,3] 0
x[17,4] 1
x[17,5] 0
x[17,6] 0
x[17,7] 0
x[17,8] 0
x[17,9] 0
x[17,10] 0
x[17,11] 0
x[17,12] 0
x[17,13] 0
x[17,14] 0
x[17,15] 0
x[17,16] 0
x[17,17] 0
x[17,18] 0
x[17,19] 0
x[18,0] 0
x[18,1] 0
x[18,2] 0
x[18,3] 0
x[18,4] 0
x[18,5] 0
x[18,6] 0
x[18,7] 0
x[18,8] 0
x[18,9] 0
x[18,10] 0
x[18,11] 0
x[18,12] 0
x[18,13] 0
x[18,14] 0
x[18,15] 0
x[18,16] 0
x[18,17] 0
x[18,18] 1
x[18,19] 0
x[19,0] 0
x[19,1] 0
x[19,2] 0
x[19,3] 1
x[19,4] 0
x[19,5] 0
x[19,6] 0
x[19,7] 0
x[19,8] 0
x[19,9] 0
x[19,10] 0
x[19,11] 0
x[19,12] 0
x[19,13] 0
x[19,14] 0
x[19,15] 0
x[19,16] 0
x[19,17] 0
x[19,18] 0
x[19,19] 0
y[0,0,0] 1
y[1,0,1] 1
y[2,0,1] 1
y[3,0,1] 1
y[4,0,1] 1
y[5,0,1] 0
y[6,0,1] 0
y[7,0,1] 0
y[8,0,1] 0
y[2,0,2] 0
y[3,0,2] 0
y[4,0,2] 0
y[5,0,2] 1
y[6,0,2] 1
y[7,0,2] 1
y[8,0,2] 1
y[9,0,2] 1
y[10,0,2] 0
y[11,0,2] 0
y[12,0,2] 0
y[13,0,2] 0
y[10,0,3] 1
y[11,0,3] 1
y[12,0,3] 1
y[13,0,3] 1
y[14,0,3] 1
y[15,0,4] 1
y[0,1,0] 1
y[1,1,1] 1
y[2,1,1] 1
y[3,1,1] 1
y[4,1,1] 0
y[5,1,1] 1
y[6,1,1] 0
y[7,1,1] 0
y[8,1,1] 0
y[2,1,2] 0
y[3,1,2] 0
y[4,1,2] 1
y[5,1,2] 0
y[6,1,2] 1
y[7,1,2] 1
y[8,1,2] 1
y[9,1,2] 1
y[10,1,2] 0
y[11,1,2] 0
y[12,1,2] 0
y[13,1,2] 0
y[10,1,3] 1
y[11,1,3] 1
y[12,1,3] 1
y[13,1,3] 1
y[14,1,3] 1
y[15,1,4] 1
y[0,2,0] 1
y[1,2,1] 1
y[2,2,1] 1
y[3,2,1] 1
y[4,2,1] 1
y[5,2,1] 0
y[6,2,1] 0
y[7,2,1] 0
y[8,2,1] 0
y[2,2,2] 0
y[3,2,2] 0
y[4,2,2] 0
y[5,2,2] 1
y[6,2,2] 1
y[7,2,2] 1
y[8,2,2] 1
y[9,2,2] 1
y[10,2,2] 0
y[11,2,2] 0
y[12,2,2] 0
y[13,2,2] 0
y[10,2,3] 1
y[11,2,3] 1
y[12,2,3] 1
y[13,2,3] 1
y[14,2,3] 1
y[15,2,4] 1
y[0,3,0] 1
y[1,3,1] 1
y[2,3,1] 1
y[3,3,1] 1
y[4,3,1] 0
y[5,3,1] 1
y[6,3,1] 0
y[7,3,1] 0
y[8,3,1] 0
y[2,3,2] 0
y[3,3,2] 0
y[4,3,2] 1
y[5,3,2] 0
y[6,3,2] 1
y[7,3,2] 1
y[8,3,2] 1
y[9,3,2] 1
y[10,3,2] 0
y[11,3,2] 0
y[12,3,2] 0
y[13,3,2] 0
y[10,3,3] 1
y[11,3,3] 1
y[12,3,3] 1
y[13,3,3] 1
y[14,3,3] 1
y[15,3,4] 1
y[0,4,0] 1
y[1,4,1] 1
y[2,4,1] 1
y[3,4,1] 1
y[4,4,1] 0
y[5,4,1] 1
y[6,4,1] 0
y[7,4,1] 0
y[8,4,1] 0
y[2,4,2] 0
y[3,4,2] 0
y[4,4,2] 1
y[5,4,2] 0
y[6,4,2] 1
y[7,4,2] 1
y[8,4,2] 1
y[9,4,2] 1
y[10,4,2] 0
y[11,4,2] 0
y[12,4,2] 0
y[13,4,2] 0
y[10,4,3] 1
y[11,4,3] 1
y[12,4,3] 1
y[13,4,3] 1
y[14,4,3] 1
y[15,4,4] 1
y[0,5,0] 1
y[1,5,1] 1
y[2,5,1] 1
y[3,5,1] 1
y[4,5,1] 0
y[5,5,1] 1
y[6,5,1] 0
y[7,5,1] 0
y[8,5,1] 0
y[2,5,2] 0
y[3,5,2] 0
y[4,5,2] 1
y[5,5,2] 0
y[6,5,2] 1
y[7,5,2] 1
y[8,5,2] 1
y[9,5,2] 1
y[10,5,2] 0
y[11,5,2] 0
y[12,5,2] 0
y[13,5,2] 0
y[10,5,3] 1
y[11,5,3] 1
y[12,5,3] 1
y[13,5,3] 1
y[14,5,3] 1
y[15,5,4] 1
y[0,6,0] 1
y[1,6,1] 1
y[2,6,1] 1
y[3,6,1] 1
y[4,6,1] 1
y[5,6,1] 1
y[6,6,1] 0
y[7,6,1] 0
y[8,6,1] 1
y[2,6,2] 0
y[3,6,2] 0
y[4,6,2] 0
y[5,6,2] 0
y[6,6,2] 1
y[7,6,2] 1
y[8,6,2] 0
y[9,6,2] 1
y[10,6,2] 1
y[11,6,2] 1
y[12,6,2] 1
y[13,6,2] 0
y[10,6,3] 0
y[11,6,3] 0
y[12,6,3] 0
y[13,6,3] 1
y[14,6,3] 1
y[15,6,4] 1
y[0,7,0] 1
y[1,7,1] 1
y[2,7,1] 1
y[3,7,1] 1
y[4,7,1] 0
y[5,7,1] 0
y[6,7,1] 0
y[7,7,1] 0
y[8,7,1] 0
y[2,7,2] 0
y[3,7,2] 0
y[4,7,2] 1
y[5,7,2] 1
y[6,7,2] 1
y[7,7,2] 1
y[8,7,2] 1
y[9,7,2] 1
y[10,7,2] 0
y[11,7,2] 0
y[12,7,2] 0
y[13,7,2] 0
y[10,7,3] 1
y[11,7,3] 1
y[12,7,3] 1
y[13,7,3] 1
y[14,7,3] 1
y[15,7,4] 1
y[0,8,0] 1
y[1,8,1] 1
y[2,8,1] 1
y[3,8,1] 1
y[4,8,1] 1
y[5,8,1] 0
y[6,8,1] 0
y[7,8,1] 0
y[8,8,1] 0
y[2,8,2] 0
y[3,8,2] 0
y[4,8,2] 0
y[5,8,2] 1
y[6,8,2] 1
y[7,8,2] 1
y[8,8,2] 1
y[9,8,2] 1
y[10,8,2] 0
y[11,8,2] 0
y[12,8,2] 0
y[13,8,2] 0
y[10,8,3] 1
y[11,8,3] 1
y[12,8,3] 1
y[13,8,3] 1
y[14,8,3] 1
y[15,8,4] 1
y[0,9,0] 1
y[1,9,1] 1
y[2,9,1] 1
y[3,9,1] 1
y[4,9,1] 1
y[5,9,1] 0
y[6,9,1] 0
y[7,9,1] 0
y[8,9,1] 0
y[2,9,2] 0
y[3,9,2] 0
y[4,9,2] 0
y[5,9,2] 1
y[6,9,2] 1
y[7,9,2] 1
y[8,9,2] 1
y[9,9,2] 1
y[10,9,2] 0
y[11,9,2] 0
y[12,9,2] 0
y[13,9,2] 0
y[10,9,3] 1
y[11,9,3] 1
y[12,9,3] 1
y[13,9,3] 1
y[14,9,3] 1
y[15,9,4] 1
y[0,10,0] 1
y[1,10,1] 1
y[2,10,1] 0
y[3,10,1] 1
y[4,10,1] 1
y[5,10,1] 1
y[6,10,1] 0
y[7,10,1] 0
y[8,10,1] 1
y[2,10,2] 1
y[3,10,2] 0
y[4,10,2] 0
y[5,10,2] 0
y[6,10,2] 1
y[7,10,2] 1
y[8,10,2] 0
y[9,10,2] 1
y[10,10,2] 0
y[11,10,2] 0
y[12,10,2] 0
y[13,10,2] 0
y[10,10,3] 1
y[11,10,3] 1
y[12,10,3] 1
y[13,10,3] 1
y[14,10,3] 1
y[15,10,4] 1
y[0,11,0] 1
y[1,11,1] 1
y[2,11,1] 1
y[3,11,1] 1
y[4,11,1] 1
y[5,11,1] 0
y[6,11,1] 0
y[7,11,1] 0
y[8,11,1] 0
y[2,11,2] 0
y[3,11,2] 0
y[4,11,2] 0
y[5,11,2] 1
y[6,11,2] 1
y[7,11,2] 1
y[8,11,2] 1
y[9,11,2] 1
y[10,11,2] 0
y[11,11,2] 0
y[12,11,2] 0
y[13,11,2] 0
y[10,11,3] 1
y[11,11,3] 1
y[12,11,3] 1
y[13,11,3] 1
y[14,11,3] 1
y[15,11,4] 1
y[0,12,0] 1
y[1,12,1] 1
y[2,12,1] 1
y[3,12,1] 1
y[4,12,1] 0
y[5,12,1] 1
y[6,12,1] 0
y[7,12,1] 0
y[8,12,1] 1
y[2,12,2] 0
y[3,12,2] 0
y[4,12,2] 1
y[5,12,2] 0
y[6,12,2] 1
y[7,12,2] 1
y[8,12,2] 0
y[9,12,2] 1
y[10,12,2] 0
y[11,12,2] 0
y[12,12,2] 0
y[13,12,2] 0
y[10,12,3] 1
y[11,12,3] 1
y[12,12,3] 1
y[13,12,3] 1
y[14,12,3] 1
y[15,12,4] 1
y[0,13,0] 1
y[1,13,1] 1
y[2,13,1] 1
y[3,13,1] 1
y[4,13,1] 1
y[5,13,1] 0
y[6,13,1] 0
y[7,13,1] 0
y[8,13,1] 0
y[2,13,2] 0
y[3,13,2] 0
y[4,13,2] 0
y[5,13,2] 1
y[6,13,2] 1
y[7,13,2] 1
y[8,13,2] 1
y[9,13,2] 1
y[10,13,2] 0
y[11,13,2] 0
y[12,13,2] 0
y[13,13,2] 0
y[10,13,3] 1
y[11,13,3] 1
y[12,13,3] 1
y[13,13,3] 1
y[14,13,3] 1
y[15,13,4] 1
y[0,14,0] 1
y[1,14,1] 1
y[2,14,1] 1
y[3,14,1] 1
y[4,14,1] 0
y[5,14,1] 1
y[6,14,1] 0
y[7,14,1] 0
y[8,14,1] 0
y[2,14,2] 0
y[3,14,2] 0
y[4,14,2] 1
y[5,14,2] 0
y[6,14,2] 1
y[7,14,2] 1
y[8,14,2] 1
y[9,14,2] 1
y[10,14,2] 0
y[11,14,2] 0
y[12,14,2] 0
y[13,14,2] 0
y[10,14,3] 1
y[11,14,3] 1
y[12,14,3] 1
y[13,14,3] 1
y[14,14,3] 1
y[15,14,4] 1
y[0,15,0] 1
y[1,15,1] 1
y[2,15,1] 1
y[3,15,1] 1
y[4,15,1] 1
y[5,15,1] 0
y[6,15,1] 0
y[7,15,1] 0
y[8,15,1] 0
y[2,15,2] 0
y[3,15,2] 0
y[4,15,2] 0
y[5,15,2] 1
y[6,15,2] 1
y[7,15,2] 1
y[8,15,2] 1
y[9,15,2] 1
y[10,15,2] 0
y[11,15,2] 0
y[12,15,2] 0
y[13,15,2] 0
y[10,15,3] 1
y[11,15,3] 1
y[12,15,3] 1
y[13,15,3] 1
y[14,15,3] 1
y[15,15,4] 1
y[0,16,0] 1
y[1,16,1] 1
y[2,16,1] 1
y[3,16,1] 1
y[4,16,1] 0
y[5,16,1] 1
y[6,16,1] 0
y[7,16,1] 0
y[8,16,1] 1
y[2,16,2] 0
y[3,16,2] 0
y[4,16,2] 1
y[5,16,2] 0
y[6,16,2] 1
y[7,16,2] 1
y[8,16,2] 0
y[9,16,2] 1
y[10,16,2] 0
y[11,16,2] 0
y[12,16,2] 0
y[13,16,2] 0
y[10,16,3] 1
y[11,16,3] 1
y[12,16,3] 1
y[13,16,3] 1
y[14,16,3] 1
y[15,16,4] 1
y[0,17,0] 1
y[1,17,1] 1
y[2,17,1] 1
y[3,17,1] 1
y[4,17,1] 1
y[5,17,1] 0
y[6,17,1] 0
y[7,17,1] 0
y[8,17,1] 0
y[2,17,2] 0
y[3,17,2] 0
y[4,17,2] 0
y[5,17,2] 1
y[6,17,2] 1
y[7,17,2] 1
y[8,17,2] 1
y[9,17,2] 1
y[10,17,2] 0
y[11,17,2] 0
y[12,17,2] 0
y[13,17,2] 0
y[10,17,3] 1
y[11,17,3] 1
y[12,17,3] 1
y[13,17,3] 1
y[14,17,3] 1
y[15,17,4] 1
y[0,18,0] 1
y[1,18,1] 1
y[2,18,1] 1
y[3,18,1] 1
y[4,18,1] 0
y[5,18,1] 0
y[6,18,1] 0
y[7,18,1] 0
y[8,18,1] 0
y[2,18,2] 0
y[3,18,2] 0
y[4,18,2] 1
y[5,18,2] 1
y[6,18,2] 1
y[7,18,2] 1
y[8,18,2] 1
y[9,18,2] 1
y[10,18,2] 0
y[11,18,2] 0
y[12,18,2] 0
y[13,18,2] 0
y[10,18,3] 1
y[11,18,3] 1
y[12,18,3] 1
y[13,18,3] 1
y[14,18,3] 1
y[15,18,4] 1
y[0,19,0] 1
y[1,19,1] 1
y[2,19,1] 1
y[3,19,1] 1
y[4,19,1] 1
y[5,19,1] 0
y[6,19,1] 0
y[7,19,1] 0
y[8,19,1] 0
y[2,19,2] 0
y[3,19,2] 0
y[4,19,2] 0
y[5,19,2] 1
y[6,19,2] 1
y[7,19,2] 1
y[8,19,2] 1
y[9,19,2] 1
y[10,19,2] 0
y[11,19,2] 0
y[12,19,2] 0
y[13,19,2] 0
y[10,19,3] 1
y[11,19,3] 1
y[12,19,3] 1
y[13,19,3] 1
y[14,19,3] 1
y[15,19,4] 1
s[0,0] 0
s[0,1] 2.5999999999998437e+01
s[0,2] 5.3999999999998437e+01
s[0,3] 9.1999999999998437e+01
s[0,4] 1.1699999999999841e+02
s[1,0] 26
s[1,1] 5.3999999999998437e+01
s[1,2] 92
s[1,3] 1.2299999999999997e+02
s[1,4] 1.4799999999999997e+02
s[2,0] 54
s[2,1] 92
s[2,2] 1.2299999999999994e+02
s[2,3] 1.5699999999999991e+02
s[2,4] 1.9100000000000466e+02
s[3,0] 92
s[3,1] 1.2299999999999991e+02
s[3,2] 1.5699999999999989e+02
s[3,3] 1.9099999999999983e+02
s[3,4] 2.1599999999999977e+02
s[4,0] 123
s[4,1] 1.5699999999999989e+02
s[4,2] 1.9099999999999983e+02
s[4,3] 2.2599999962070126e+02
s[4,4] 2.5099999962070126e+02
s[5,0] 157
s[5,1] 1.9099999999999977e+02
s[5,2] 2.2599999962070069e+02
s[5,3] 2.5999999962070063e+02
s[5,4] 2.9599999962070063e+02
s[6,0] 191
s[6,1] 2.2599999962070012e+02
s[6,2] 2.5999999962070018e+02
s[6,3] 2.9599999962069967e+02
s[6,4] 3.1899999962069916e+02
s[7,0] 226
s[7,1] 2.5999999962069973e+02
s[7,2] 2.9599999962069921e+02
s[7,3] 3.2699999962069870e+02
s[7,4] 3.5299999962069870e+02
s[8,0] 260
s[8,1] 2.9599999962069887e+02
s[8,2] 3.2699999962069865e+02
s[8,3] 3.6099999962069859e+02
s[8,4] 3.9599999962069654e+02
s[9,0] 296
s[9,1] 3.2699999962069859e+02
s[9,2] 3.6099999962069853e+02
s[9,3] 3.9599999962069847e+02
s[9,4] 4.2199999962069654e+02
s[10,0] 327
s[10,1] 3.6099999962069847e+02
s[10,2] 3.9599999962069842e+02
s[10,3] 4.2899999962069830e+02
s[10,4] 4.5299999962069830e+02
s[11,0] 361
s[11,1] 3.9599999962069830e+02
s[11,2] 4.2899999962069819e+02
s[11,3] 4.6299999962069808e+02
s[11,4] 4.9499999962070041e+02
s[12,0] 396
s[12,1] 4.2899999962069808e+02
s[12,2] 4.6299999962069796e+02
s[12,3] 4.9499999962069785e+02
s[12,4] 5.1999999962069592e+02
s[13,0] 429
s[13,1] 4.6299999962069785e+02
s[13,2] 4.9499999962069774e+02
s[13,3] 5.3099999962069762e+02
s[13,4] 5.5599999962069762e+02
s[14,0] 463
s[14,1] 4.9499999962069762e+02
s[14,2] 5.3099999962069751e+02
s[14,3] 5.6399999962069739e+02
s[14,4] 5.9699999962069523e+02
s[15,0] 495
s[15,1] 5.3099999962069739e+02
s[15,2] 5.6399999962069728e+02
s[15,3] 5.9699999962069717e+02
s[15,4] 6.2099999962069523e+02
s[16,0] 531
s[16,1] 5.6399999962069717e+02
s[16,2] 596.999999620697
s[16,3] 6.3199999962069694e+02
s[16,4] 6.5599999962069694e+02
s[17,0] 564
s[17,1] 5.9699999962069694e+02
s[17,2] 6.3199999962069683e+02
s[17,3] 662.999999620697
s[17,4] 7.0399999962069455e+02
s[18,0] 597
s[18,1] 6.3199999962069535e+02
s[18,2] 6.6299999962069683e+02
s[18,3] 7.0399999962069455e+02
s[18,4] 7.2699999962069194e+02
s[19,0] 632
s[19,1] 6.6299999962069671e+02
s[19,2] 7.0599999962069671e+02
s[19,3] 7.3899999962069671e+02
s[19,4] 7.4699999962069660e+02
P[0,0] 2.5999999999998437e+01
P[0,1] 28
P[0,2] 38
P[0,3] 2.4999999999999972e+01
P[0,4] 3.1000000000001563e+01
P[1,0] 25
P[1,1] 37
P[1,2] 31
P[1,3] 25
P[1,4] 4.3000000000004690e+01
P[2,0] 26
P[2,1] 31
P[2,2] 34
P[2,3] 24
P[2,4] 2.4999999999995111e+01
P[3,0] 28
P[3,1] 34
P[3,2] 34
P[3,3] 25
P[3,4] 3.4999999620701487e+01
P[4,0] 26
P[4,1] 34
P[4,2] 35
P[4,3] 25
P[4,4] 4.4999999999999361e+01
P[5,0] 28
P[5,1] 35
P[5,2] 34
P[5,3] 26
P[5,4] 2.2999999999998540e+01
P[6,0] 27
P[6,1] 34
P[6,2] 36
P[6,3] 23
P[6,4] 3.3999999999999545e+01
P[7,0] 27
P[7,1] 36
P[7,2] 31
P[7,3] 26
P[7,4] 4.2999999999997840e+01
P[8,0] 27
P[8,1] 31
P[8,2] 34
P[8,3] 26
P[8,4] 26
P[9,0] 27
P[9,1] 34
P[9,2] 35
P[9,3] 26
P[9,4] 3.1000000000001762e+01
P[10,0] 28
P[10,1] 35
P[10,2] 33
P[10,3] 24
P[10,4] 42.0000000000021
P[11,0] 27
P[11,1] 33
P[11,2] 34
P[11,3] 23
P[11,4] 24.9999999999955
P[12,0] 28
P[12,1] 34
P[12,2] 32
P[12,3] 25
P[12,4] 3.6000000000001705e+01
P[13,0] 28
P[13,1] 32
P[13,2] 36
P[13,3] 25
P[13,4] 4.0999999999997613e+01
P[14,0] 29
P[14,1] 36
P[14,2] 33
P[14,3] 25
P[14,4] 24
P[15,0] 28
P[15,1] 33
P[15,2] 33
P[15,3] 24
P[15,4] 3.5000000000001705e+01
P[16,0] 29
P[16,1] 33
P[16,2] 35
P[16,3] 24
P[16,4] 4.7999999999997613e+01
P[17,0] 27
P[17,1] 35
P[17,2] 31
P[17,3] 26
P[17,4] 2.2999999999997385e+01
P[18,0] 28
P[18,1] 28
P[18,2] 41
P[18,3] 23
P[18,4] 2.0000000000004604e+01
P[19,0] 27
P[19,1] 43
P[19,2] 33
P[19,3] 7.9999999999998295e+00
P[19,4] 10
